50
6542

299 303
283 267
13 628
524 636
229 158
938 514
703 554
677 753
998 352
302 590
793 712
283 988
875 843
302 324
697 715
157 356
203 349
368 220
74 172
295 42
357 195
634 137
150 77
130 132
449 431
677 549
709 275
978 224
719 954
402 409
9 504
637 145
669 320
305 417
479 350
381 67
777 703
244 320
831 910
161 164
392 39
209 497
654 301
869 807
700 915
657 685
618 184
977 367
22 232
182 196
